# Solution for model RMP_EVSP
# Objective value = 3.6300912912029993e+11
q_0 0
q_1 0
q_2 0
q_3 0
q_4 0
q_5 0
q_6 0
q_7 0
q_8 0
q_9 0
q_10 0
q_11 0
q_12 0
q_13 1
q_14 1
q_15 0
q_16 0
q_17 0
q_18 0
q_19 1
q_20 0
q_21 0
q_22 0
q_23 1
q_24 0
q_25 0
q_26 0
q_27 0
q_28 0
q_29 0
q_30 0
q_31 0
q_32 0
q_33 0
q_34 1
q_35 0
q_36 0
q_37 0
q_38 0
q_39 0
q_40 0
q_41 0
q_42 0
q_43 1
q_44 0
q_45 0
q_46 0
q_47 0
q_48 0
q_49 0
q_50 0
q_51 0
q_52 0
q_53 0
q_54 0
q_55 0
q_56 0
q_57 0
q_58 0
q_59 0
q_60 0
q_61 0
q_62 0
q_63 0
q_64 0
q_65 0
q_66 0
q_67 0
q_68 0
q_69 0
q_70 0
q_71 0
q_72 0
q_73 0
q_74 0
q_75 0
q_76 0
q_77 0
q_78 0
q_79 0
q_80 0
q_81 0
q_82 0
q_83 0
q_84 0
q_85 0
q_86 0
q_87 0
q_88 0
q_89 0
q_90 0
q_91 0
q_92 0
q_93 0
q_94 0
q_95 0
q_96 1
q_97 0
q_98 0
q_99 1
q_100 0
q_101 1
q_102 0
q_103 1
q_104 0
q_105 0
q_106 0
q_107 0
q_108 0
q_109 0
q_110 0
q_111 0
q_112 0
q_113 0
q_114 0
q_115 0
q_116 0
q_117 0
q_118 0
q_119 0
q_120 1
q_121 0
q_122 0
q_123 0
q_124 0
q_125 0
q_126 0
q_127 0
q_128 0
q_129 0
q_130 0
q_131 0
q_132 0
q_133 0
q_134 0
q_135 0
q_136 0
q_137 0
q_138 0
q_139 0
q_140 0
q_141 0
q_142 0
q_143 0
q_144 0
q_145 0
q_146 0
q_147 0
q_148 0
q_149 0
q_150 0
q_151 0
q_152 0
q_153 0
q_154 0
q_155 1
q_156 0
q_157 0
q_158 0
q_159 0
q_160 0
q_161 0
q_162 0
q_163 0
q_164 1
q_165 0
q_166 0
q_167 0
q_168 0
q_169 0
q_170 0
q_171 0
q_172 0
q_173 0
q_174 0
q_175 0
q_176 0
q_177 0
q_178 0
q_179 0
q_180 0
q_181 1
q_182 0
q_183 0
q_184 0
q_185 0
q_186 0
q_187 1
q_188 0
q_189 0
q_190 0
q_191 0
q_192 0
q_193 0
q_194 0
q_195 0
q_196 0
q_197 0
q_198 0
q_199 0
q_200 0
q_201 0
q_202 0
q_203 0
q_204 1
q_205 1
q_206 1
q_207 1
q_208 1
q_209 1
q_210 1
q_211 1
q_212 1
q_213 1
q_214 1
q_215 0
q_216 0
q_217 0
q_218 0
q_219 1
q_220 1
q_221 1
q_222 1
q_223 1
q_224 1
q_225 0
q_226 0
q_227 0
q_228 0
q_229 0
q_230 0
q_231 0
q_232 1
q_233 1
q_234 1
q_235 0
q_236 0
q_237 0
q_238 0
q_239 0
q_240 0
q_241 0
q_242 0
q_243 0
q_244 0
q_245 0
q_246 0
q_247 0
q_248 0
q_249 0
q_250 0
q_251 1
q_252 0
q_253 0
q_254 0
q_255 0
q_256 0
q_257 0
q_258 0
q_259 0
q_260 0
q_261 1
q_262 1
q_263 1
q_264 1
q_265 1
q_266 1
q_267 1
q_268 1
q_269 1
q_270 1
q_271 1
q_272 1
q_273 1
q_274 1
q_275 0
q_276 0
q_277 0
q_278 0
q_279 0
q_280 0
q_281 0
q_282 0
q_283 0
q_284 0
q_285 0
q_286 0
q_287 0
q_288 0
q_289 0
q_290 0
q_291 0
q_292 1
q_293 0
q_294 0
q_295 0
q_296 0
q_297 0
q_298 0
q_299 0
q_300 1
q_301 1
q_302 1
q_303 1
q_304 1
q_305 1
q_306 1
q_307 1
q_308 1
q_309 1
q_310 1
q_311 1
q_312 1
q_313 1
q_314 1
q_315 1
q_316 1
q_317 1
q_318 1
q_319 1
q_320 1
q_321 1
q_322 1
q_323 1
q_324 1
q_325 1
q_326 1
q_327 1
q_328 1
q_329 1
q_330 1
q_331 1
q_332 1
q_333 1
q_334 1
q_335 1
q_336 1
q_337 1
q_338 1
q_339 1
q_340 1
q_341 1
q_342 1
q_343 1
q_344 1
q_345 1
q_346 1
q_347 1
q_348 1
q_349 1
q_350 1
q_351 1
q_352 1
q_353 1
q_354 1
q_355 1
q_356 1
q_357 1
q_358 1
q_359 1
q_360 1
q_361 1
q_362 1
q_363 1
q_364 1
q_365 1
q_366 1
q_367 1
q_368 1
q_369 1
q_370 1
q_371 1
q_372 1
q_373 1
q_374 0
q_375 0
q_376 1
q_377 1
q_378 1
q_379 1
q_380 0
q_381 0
q_382 0
q_383 0
q_384 0
q_385 0
q_386 0
q_387 0
q_388 1
q_389 1
q_390 1
q_391 1
q_392 1
q_393 1
q_394 1
q_395 1
q_396 1
q_397 1
q_398 1
q_399 1
q_400 1
q_401 1
q_402 1
q_403 1
q_404 1
q_405 1
q_406 1
q_407 1
q_408 1
q_409 1
q_410 1
q_411 1
q_412 1
q_413 1
q_414 1
q_415 1
q_416 0
q_417 0
q_418 0
q_419 0
q_420 0
q_421 0
q_422 0
q_423 1
q_424 0
q_425 1
q_426 0
q_427 0
q_428 0
q_429 0
q_430 0
q_431 0
q_432 0
q_433 0
q_434 0
q_435 0
q_436 1
q_437 1
q_438 1
q_439 1
q_440 1
q_441 1
q_442 1
q_443 1
q_444 1
q_445 1
q_446 1
q_447 1
q_448 1
q_449 1
q_450 1
q_451 1
q_452 1
q_453 1
q_454 1
q_455 1
q_456 1
q_457 1
q_458 1
q_459 1
q_460 1
q_461 0
q_462 0
q_463 0
q_464 0
q_465 1
q_466 0
q_467 0
q_468 0
q_469 0
q_470 0
q_471 0
q_472 0
q_473 0
q_474 0
q_475 0
q_476 0
q_477 0
q_478 0
q_479 0
q_480 0
q_481 0
q_482 0
q_483 0
q_484 0
q_485 0
q_486 0
q_487 0
q_488 1
q_489 1
q_490 0
q_491 0
q_492 0
q_493 1
q_494 0
q_495 0
q_496 0
q_497 0
q_498 0
q_499 0
q_500 1
q_501 0
q_502 0
q_503 0
q_504 0
q_505 0
q_506 0
q_507 0
q_508 0
q_509 0
q_510 0
q_511 0
q_512 0
q_513 0
q_514 0
q_515 0
q_516 0
q_517 0
q_518 0
q_519 0
q_520 0
q_521 0
q_522 0
q_523 0
q_524 0
q_525 0
q_526 1
q_527 1
q_528 1
q_529 0
q_530 1
q_531 1
q_532 0
q_533 0
q_534 0
q_535 0
q_536 0
q_537 0
q_538 1
q_539 0
q_540 0
q_541 0
q_542 0
q_543 0
q_544 0
q_545 0
q_546 1
q_547 0
q_548 0
q_549 0
q_550 0
q_551 0
q_552 0
q_553 0
q_554 0
q_555 0
q_556 0
q_557 0
q_558 0
q_559 0
q_560 0
q_561 0
q_562 0
q_563 0
q_564 0
q_565 0
q_566 0
q_567 0
q_568 0
q_569 0
q_570 0
q_571 0
q_572 0
q_573 0
q_574 0
q_575 0
q_576 1
q_577 0
q_578 0
q_579 0
q_580 0
q_581 1
q_582 0
q_583 0
q_584 0
q_585 0
q_586 0
q_587 0
q_588 0
q_589 1
q_590 0
q_591 0
q_592 0
q_593 0
q_594 0
q_595 0
q_596 0
q_597 0
q_598 0
q_599 1
q_600 1
q_601 1
q_602 1
q_603 1
q_604 1
q_605 0
q_606 0
q_607 0
q_608 0
q_609 0
q_610 0
q_611 0
q_612 0
q_613 1
q_614 1
q_615 1
q_616 1
q_617 1
q_618 0
q_619 0
q_620 0
q_621 0
q_622 0
q_623 0
q_624 0
q_625 0
q_626 0
q_627 0
q_628 0
q_629 0
q_630 0
q_631 0
q_632 0
q_633 0
q_634 0
q_635 0
q_636 0
q_637 0
q_638 0
q_639 0
q_640 0
q_641 0
q_642 1
q_643 1
q_644 1
q_645 1
q_646 1
q_647 1
q_648 1
q_649 0
q_650 0
q_651 1
q_652 1
q_653 0
q_654 0
q_655 0
q_656 0
q_657 0
q_658 0
q_659 0
q_660 0
q_661 0
q_662 0
q_663 0
q_664 0
q_665 0
q_666 0
q_667 1
q_668 1
q_669 1
q_670 1
q_671 1
q_672 1
q_673 0
q_674 1
q_675 1
q_676 1
q_677 1
q_678 1
q_679 1
q_680 1
q_681 1
q_682 0
q_683 0
q_684 0
q_685 0
q_686 0
q_687 0
q_688 0
q_689 0
q_690 1
q_691 0
q_692 0
q_693 0
q_694 0
q_695 0
q_696 0
q_697 0
q_698 0
q_699 0
q_700 0
q_701 0
q_702 0
q_703 0
q_704 0
q_705 0
q_706 0
q_707 0
q_708 0
q_709 0
q_710 0
q_711 0
q_712 0
q_713 0
q_714 0
q_715 0
q_716 0
q_717 0
q_718 0
q_719 0
q_720 0
q_721 1
q_722 0
q_723 0
q_724 1
q_725 1
q_726 0
q_727 0
q_728 0
q_729 1
q_730 1
q_731 1
q_732 1
q_733 1
q_734 1
q_735 1
q_736 1
q_737 1
q_738 1
q_739 1
q_740 1
q_741 1
q_742 1
q_743 1
q_744 0
q_745 0
q_746 0
q_747 0
q_748 0
q_749 0
q_750 0
q_751 0
q_752 0
q_753 0
q_754 0
q_755 0
q_756 0
q_757 0
q_758 0
q_759 0
q_760 0
q_761 0
q_762 1
q_763 1
q_764 0
q_765 0
q_766 0
q_767 0
q_768 0
q_769 0
q_770 0
q_771 0
q_772 1
q_773 1
q_774 1
q_775 1
q_776 1
q_777 1
q_778 1
q_779 0
q_780 0
q_781 0
q_782 0
q_783 0
q_784 0
q_785 0
q_786 0
q_787 0
q_788 0
q_789 0
q_790 0
q_791 0
q_792 0
q_793 0
q_794 1
q_795 0
q_796 1
q_797 1
q_798 1
q_799 1
q_800 1
q_801 1
q_802 1
q_803 1
q_804 1
q_805 1
q_806 1
q_807 1
q_808 0
q_809 0
q_810 0
q_811 1
q_812 1
q_813 1
q_814 1
q_815 1
q_816 1
q_817 1
q_818 1
q_819 1
q_820 1
q_821 1
q_822 0
q_823 1
q_824 1
q_825 1
q_826 1
q_827 1
q_828 1
q_829 1
q_830 1
q_831 1
q_832 1
q_833 1
q_834 1
q_835 1
q_836 1
q_837 1
q_838 1
q_839 1
q_840 1
q_841 1
q_842 0
q_843 0
q_844 0
q_845 0
q_846 0
q_847 0
q_848 0
q_849 0
q_850 0
q_851 0
q_852 0
q_853 0
q_854 0
q_855 0
q_856 0
q_857 0
q_858 0
q_859 0
q_860 0
q_861 0
q_862 0
q_863 0
q_864 0
q_865 0
q_866 1
q_867 0
q_868 0
q_869 1
q_870 0
q_871 0
q_872 0
q_873 0
q_874 0
q_875 0
q_876 0
q_877 0
q_878 0
q_879 1
q_880 1
q_881 1
q_882 0
q_883 0
q_884 0
q_885 0
q_886 1
q_887 1
q_888 1
q_889 1
q_890 1
q_891 1
q_892 1
q_893 1
q_894 1
q_895 1
q_896 1
q_897 1
q_898 1
q_899 1
q_900 1
q_901 1
q_902 1
q_903 1
q_904 1
q_905 1
q_906 1
q_907 1
q_908 1
q_909 1
q_910 1
q_911 1
q_912 1
q_913 0
q_914 0
q_915 0
q_916 0
q_917 0
q_918 0
q_919 0
q_920 0
q_921 0
q_922 0
q_923 0
q_924 0
q_925 0
q_926 0
q_927 0
q_928 0
q_929 0
q_930 0
q_931 0
q_932 0
q_933 0
q_934 1
q_935 0
q_936 1
q_937 0
q_938 0
q_939 0
q_940 0
q_941 1
q_942 1
q_943 1
q_944 1
q_945 1
q_946 1
q_947 1
q_948 1
q_949 1
q_950 1
q_951 1
q_952 1
q_953 0
q_954 1
q_955 1
q_956 1
q_957 1
q_958 0
q_959 0
q_960 0
q_961 1
q_962 1
q_963 1
q_964 1
q_965 1
q_966 1
q_967 0
q_968 0
q_969 0
q_970 0
q_971 1
q_972 0
q_973 1
q_974 1
q_975 0
q_976 0
q_977 0
q_978 0
q_979 0
q_980 0
q_981 0
q_982 0
q_983 0
q_984 0
q_985 0
q_986 0
a[0] 0
a[1] 0
a[2] 0
a[3] 0
a[4] 0
a[5] 0
a[6] 0
a[7] 0
a[8] 0
a[9] 0
a[10] 0
a[11] 0
a[12] 1
a[13] 0
a[14] 0
a[15] 0
a[16] 0
a[17] 0
a[18] 0
a[19] 0
a[20] 0
a[21] 0
a[22] 0
a[23] 0
a[24] 0
a[25] 1
a[26] 0
a[27] 0
a[28] 0
a[29] 0
a[30] 0
a[31] 0
a[32] 0
a[33] 0
a[34] 0
a[35] 0
a[36] 0
a[37] 0
a[38] 0
a[39] 0
a[40] 0
a[41] 0
a[42] 0
a[43] 0
a[44] 0
a[45] 0
a[46] 0
a[47] 1
a[48] 0
a[49] 0
a[50] 0
a[51] 0
a[52] 0
a[53] 0
a[54] 1
a[55] 0
a[56] 0
a[57] 0
a[58] 0
a[59] 0
a[60] 0
a[61] 0
a[62] 0
a[63] 0
a[64] 0
a[65] 0
a[66] 0
a[67] 0
a[68] 0
a[69] 1
a[70] 0
a[71] 0
a[72] 0
a[73] 0
a[74] 0
a[75] 0
a[76] 0
a[77] 0
a[78] 0
a[79] 0
a[80] 0
a[81] 0
a[82] 0
a[83] 0
a[84] 0
a[85] 0
a[86] 0
a[87] 0
a[88] 0
a[89] 0
a[90] 0
a[91] 0
a[92] 0
a[93] 0
a[94] 0
a[95] 0
a[96] 0
a[97] 0
a[98] 0
a[99] 0
a[100] 0
a[101] 0
a[102] 0
a[103] 0
a[104] 0
a[105] 0
a[106] 0
a[107] 0
a[108] 0
a[109] 0
a[110] 0
a[111] 0
a[112] 0
a[113] 0
a[114] 0
a[115] 0
a[116] 1
a[117] 0
a[118] 0
a[119] 1
a[120] 0
a[121] 0
a[122] 0
a[123] 0
a[124] 0
a[125] 0
a[126] 0
a[127] 0
a[128] 1
a[129] 0
a[130] 0
a[131] 0
a[132] 0
a[133] 0
a[134] 0
a[135] 0
a[136] 0
a[137] 0
a[138] 0
a[139] 0
a[140] 0
a[141] 0
a[142] 0
a[143] 0
a[144] 0
a[145] 0
a[146] 0
a[147] 0
a[148] 0
a[149] 0
a[150] 0
a[151] 0
a[152] 1
a[153] 0
a[154] 0
a[155] 1
a[156] 0
a[157] 0
a[158] 0
a[159] 0
a[160] 0
a[161] 0
a[162] 0
a[163] 1
a[164] 0
a[165] 0
a[166] 0
a[167] 0
a[168] 0
a[169] 0
a[170] 0
a[171] 0
a[172] 0
a[173] 0
a[174] 0
a[175] 0
a[176] 0
a[177] 0
a[178] 0
a[179] 0
a[180] 0
a[181] 0
a[182] 0
a[183] 0
a[184] 0
a[185] 0
a[186] 0
a[187] 0
a[188] 0
a[189] 0
a[190] 0
a[191] 0
a[192] 0
a[193] 1
a[194] 0
a[195] 1
a[196] 0
a[197] 0
a[198] 0
a[199] 0
a[200] 0
a[201] 0
a[202] 0
a[203] 0
a[204] 0
a[205] 0
a[206] 0
a[207] 0
a[208] 0
a[209] 1
a[210] 0
a[211] 0
a[212] 0
a[213] 0
a[214] 0
a[215] 0
a[216] 0
a[217] 0
a[218] 0
a[219] 0
a[220] 0
a[221] 1
a[222] 0
a[223] 0
a[224] 0
a[225] 1
a[226] 0
a[227] 0
a[228] 0
a[229] 0
a[230] 0
a[231] 0
a[232] 0
a[233] 0
a[234] 0
a[235] 0
a[236] 0
a[237] 0
a[238] 0
a[239] 0
a[240] 0
a[241] 0
a[242] 1
a[243] 0
a[244] 0
a[245] 0
a[246] 0
a[247] 0
a[248] 0
a[249] 0
a[250] 0
a[251] 0
a[252] 0
a[253] 0
a[254] 1
a[255] 0
a[256] 0
a[257] 0
a[258] 1
a[259] 0
a[260] 0
a[261] 0
a[262] 0
a[263] 0
a[264] 0
a[265] 0
a[266] 0
a[267] 0
a[268] 1
a[269] 0
a[270] 0
a[271] 1
a[272] 0
a[273] 0
a[274] 0
a[275] 1
a[276] 0
a[277] 0
a[278] 0
a[279] 0
a[280] 0
a[281] 0
a[282] 0
a[283] 0
a[284] 1
a[285] 0
a[286] 0
a[287] 1
a[288] 0
a[289] 0
a[290] 0
a[291] 1
a[292] 0
a[293] 0
a[294] 1
a[295] 1
a[296] 0
a[297] 1
a[298] 0
a[299] 0
a[300] 0
a[301] 0
a[302] 0
a[303] 0
a[304] 0
a[305] 0
a[306] 0
a[307] 0
a[308] 0
a[309] 0
a[310] 1
a[311] 0
a[312] 0
a[313] 0
a[314] 0
a[315] 0
a[316] 1
a[317] 0
a[318] 0
a[319] 1
a[320] 0
a[321] 0
a[322] 0
a[323] 0
a[324] 0
a[325] 0
a[326] 0
a[327] 1
a[328] 0
a[329] 0
a[330] 0
a[331] 0
a[332] 0
a[333] 0
a[334] 1
a[335] 0
a[336] 0
a[337] 0
a[338] 1
a[339] 1
a[340] 0
a[341] 0
a[342] 1
a[343] 1
a[344] 0
a[345] 0
a[346] 0
a[347] 1
a[348] 0
a[349] 0
a[350] 0
a[351] 1
a[352] 0
a[353] 0
a[354] 0
a[355] 0
a[356] 0
a[357] 0
a[358] 0
a[359] 1
a[360] 0
a[361] 0
a[362] 0
a[363] 0
a[364] 0
a[365] 1
a[366] 1
a[367] 0
a[368] 1
a[369] 0
a[370] 0
a[371] 0
a[372] 1
a[373] 1
a[374] 0
a[375] 0
a[376] 0
a[377] 1
a[378] 0
a[379] 1
a[380] 0
a[381] 1
a[382] 1
a[383] 1
a[384] 0
a[385] 0
a[386] 0
a[387] 0
a[388] 0
a[389] 0
a[390] 0
a[391] 0
a[392] 0
a[393] 0
a[394] 0
a[395] 0
a[396] 0
a[397] 0
a[398] 0
a[399] 0
a[400] 0
a[401] 1
a[402] 0
a[403] 1
a[404] 0
a[405] 0
a[406] 1
a[407] 0
a[408] 0
a[409] 1
a[410] 0
a[411] 1
a[412] 1
a[413] 0
a[414] 0
a[415] 0
a[416] 0
a[417] 0
a[418] 1
a[419] 0
a[420] 0
a[421] 0
a[422] 0
a[423] 0
a[424] 0
a[425] 0
a[426] 0
a[427] 0
a[428] 0
a[429] 1
a[430] 0
a[431] 0
a[432] 0
a[433] 0
a[434] 0
a[435] 0
a[436] 0
a[437] 1
a[438] 0
a[439] 0
a[440] 0
a[441] 0
a[442] 0
a[443] 0
a[444] 0
a[445] 0
a[446] 0
a[447] 0
a[448] 0
a[449] 0
a[450] 0
a[451] 0
a[452] 0
a[453] 0
a[454] 0
a[455] 0
a[456] 1
a[457] 0
a[458] 1
a[459] 0
a[460] 0
a[461] 0
a[462] 0
a[463] 0
a[464] 0
a[465] 0
a[466] 0
a[467] 1
a[468] 0
a[469] 0
a[470] 0
a[471] 0
a[472] 0
a[473] 0
a[474] 0
a[475] 0
a[476] 0
a[477] 0
a[478] 0
a[479] 0
a[480] 1
a[481] 0
a[482] 0
a[483] 0
a[484] 1
a[485] 0
a[486] 0
a[487] 1
a[488] 1
a[489] 0
a[490] 0
a[491] 0
a[492] 0
a[493] 0
a[494] 0
a[495] 0
a[496] 0
a[497] 0
a[498] 0
a[499] 0
a[500] 0
a[501] 0
a[502] 0
a[503] 0
a[504] 1
a[505] 0
a[506] 1
a[507] 0
a[508] 1
a[509] 1
a[510] 1
a[511] 0
a[512] 0
a[513] 0
a[514] 0
a[515] 1
a[516] 0
a[517] 0
a[518] 0
a[519] 0
a[520] 0
a[521] 0
a[522] 1
a[523] 0
a[524] 0
a[525] 0
a[526] 0
a[527] 0
a[528] 0
a[529] 1
a[530] 0
a[531] 0
a[532] 0
a[533] 0
a[534] 1
a[535] 1
a[536] 1
a[537] 0
a[538] 0
a[539] 1
a[540] 0
a[541] 1
a[542] 1
a[543] 0
a[544] 1
a[545] 0
a[546] 1
a[547] 0
a[548] 0
a[549] 0
a[550] 0
a[551] 0
a[552] 0
a[553] 1
a[554] 0
a[555] 0
a[556] 0
a[557] 0
a[558] 1
a[559] 0
a[560] 0
a[561] 0
a[562] 0
a[563] 1
a[564] 0
a[565] 0
a[566] 0
a[567] 0
a[568] 0
a[569] 0
a[570] 1
a[571] 0
a[572] 0
a[573] 1
a[574] 1
a[575] 0
a[576] 0
a[577] 0
a[578] 1
a[579] 0
a[580] 1
a[581] 0
a[582] 1
a[583] 0
a[584] 1
a[585] 0
a[586] 0
a[587] 0
a[588] 0
a[589] 0
a[590] 0
a[591] 1
a[592] 1
a[593] 1
a[594] 0
a[595] 0
a[596] 0
a[597] 0
a[598] 0
a[599] 0
a[600] 0
a[601] 1
a[602] 0
a[603] 0
a[604] 1
a[605] 1
a[606] 0
a[607] 0
a[608] 1
a[609] 0
a[610] 0
a[611] 0
a[612] 1
a[613] 1
a[614] 0
a[615] 0
a[616] 0
a[617] 0
a[618] 0
a[619] 0
a[620] 0
a[621] 0
a[622] 0
a[623] 0
a[624] 1
a[625] 0
a[626] 1
a[627] 0
a[628] 0
a[629] 0
a[630] 0
a[631] 0
a[632] 0
a[633] 0
a[634] 0
a[635] 0
a[636] 0
a[637] 0
a[638] 0
a[639] 1
a[640] 0
a[641] 0
a[642] 0
a[643] 1
a[644] 0
a[645] 1
a[646] 0
a[647] 0
a[648] 0
a[649] 0
a[650] 0
a[651] 1
a[652] 1
a[653] 0
a[654] 0
a[655] 0
a[656] 0
a[657] 0
a[658] 0
a[659] 0
a[660] 0
a[661] 1
a[662] 1
a[663] 0
a[664] 0
a[665] 1
a[666] 1
a[667] 1
a[668] 1
a[669] 0
a[670] 0
a[671] 0
a[672] 1
a[673] 1
a[674] 1
a[675] 0
a[676] 1
a[677] 1
a[678] 1
a[679] 0
a[680] 0
a[681] 1
a[682] 0
a[683] 1
a[684] 0
a[685] 1
a[686] 0
a[687] 0
a[688] 0
a[689] 0
a[690] 0
a[691] 0
a[692] 0
a[693] 0
a[694] 1
a[695] 0
a[696] 0
a[697] 1
a[698] 0
a[699] 0
a[700] 0
a[701] 0
a[702] 0
a[703] 0
a[704] 0
a[705] 1
a[706] 0
a[707] 0
a[708] 0
a[709] 1
a[710] 0
a[711] 0
a[712] 0
a[713] 0
a[714] 0
a[715] 1
a[716] 0
a[717] 0
a[718] 1
a[719] 0
a[720] 1
a[721] 0
a[722] 0
a[723] 1
a[724] 0
a[725] 0
a[726] 1
a[727] 0
a[728] 0
a[729] 0
a[730] 0
a[731] 0
a[732] 1
a[733] 1
a[734] 1
a[735] 0
a[736] 0
a[737] 1
a[738] 0
a[739] 1
a[740] 0
a[741] 0
a[742] 0
a[743] 0
a[744] 1
a[745] 0
a[746] 0
a[747] 1
a[748] 0
a[749] 0
a[750] 0
a[751] 0
a[752] 0
a[753] 0
a[754] 1
a[755] 1
a[756] 0
a[757] 0
a[758] 1
a[759] 0
a[760] 0
a[761] 0
a[762] 0
a[763] 1
a[764] 1
a[765] 0
a[766] 1
a[767] 0
a[768] 0
a[769] 1
a[770] 0
a[771] 0
a[772] 0
a[773] 0
a[774] 1
a[775] 0
a[776] 1
a[777] 0
a[778] 0
a[779] 0
a[780] 1
a[781] 0
a[782] 1
a[783] 0
a[784] 0
a[785] 0
a[786] 1
a[787] 1
a[788] 0
a[789] 1
a[790] 1
a[791] 0
a[792] 0
a[793] 0
a[794] 0
a[795] 0
a[796] 0
a[797] 0
a[798] 0
a[799] 0
a[800] 0
a[801] 1
a[802] 0
a[803] 0
a[804] 1
a[805] 1
a[806] 1
a[807] 1
a[808] 0
a[809] 0
a[810] 0
a[811] 0
a[812] 1
a[813] 0
a[814] 1
a[815] 0
a[816] 1
a[817] 1
a[818] 0
a[819] 0
a[820] 1
a[821] 0
a[822] 0
a[823] 0
a[824] 0
a[825] 0
a[826] 0
a[827] 0
a[828] 1
a[829] 1
a[830] 1
a[831] 1
a[832] 0
a[833] 0
a[834] 1
a[835] 0
a[836] 0
a[837] 0
a[838] 1
a[839] 0
a[840] 0
a[841] 0
a[842] 0
a[843] 0
a[844] 0
a[845] 0
a[846] 0
a[847] 0
a[848] 1
a[849] 1
a[850] 0
a[851] 0
a[852] 0
a[853] 0
a[854] 1
a[855] 1
a[856] 1
a[857] 0
a[858] 1
a[859] 0
a[860] 1
a[861] 1
a[862] 0
a[863] 0
a[864] 1
a[865] 0
a[866] 0
a[867] 1
a[868] 0
a[869] 0
a[870] 0
a[871] 0
a[872] 1
a[873] 0
a[874] 0
a[875] 0
a[876] 0
a[877] 0
a[878] 0
a[879] 0
a[880] 0
a[881] 1
a[882] 1
a[883] 0
a[884] 0
a[885] 0
a[886] 0
a[887] 0
a[888] 0
a[889] 0
a[890] 0
a[891] 0
a[892] 1
a[893] 0
a[894] 0
a[895] 0
a[896] 0
a[897] 1
a[898] 0
a[899] 0
a[900] 0
a[901] 1
a[902] 1
a[903] 0
a[904] 0
a[905] 1
a[906] 0
a[907] 0
a[908] 0
a[909] 1
a[910] 0
a[911] 1
a[912] 1
a[913] 1
a[914] 0
a[915] 0
a[916] 0
a[917] 0
a[918] 0
a[919] 0
a[920] 1
a[921] 0
a[922] 0
a[923] 0
a[924] 0
a[925] 0
a[926] 0
a[927] 0
a[928] 0
a[929] 0
a[930] 0
a[931] 0
a[932] 0
a[933] 0
a[934] 0
a[935] 0
a[936] 1
a[937] 1
a[938] 1
a[939] 1
a[940] 1
a[941] 0
a[942] 0
a[943] 0
a[944] 1
a[945] 0
a[946] 0
a[947] 1
a[948] 0
a[949] 1
a[950] 0
a[951] 0
a[952] 1
a[953] 0
a[954] 0
a[955] 1
a[956] 0
a[957] 1
a[958] 0
a[959] 1
a[960] 1
a[961] 1
a[962] 1
a[963] 0
a[964] 1
a[965] 0
a[966] 1
a[967] 0
a[968] 1
a[969] 1
a[970] 1
a[971] 1
a[972] 1
a[973] 1
a[974] 0
a[975] 1
a[976] 0
a[977] 0
a[978] 0
a[979] 1
a[980] 0
a[981] 0
a[982] 0
a[983] 0
a[984] 1
a[985] 1
a[986] 0
a[987] 0
a[988] 0
a[989] 0
a[990] 0
a[991] 0
a[992] 0
a[993] 0
a[994] 1
a[995] 1
a[996] 0
a[997] 0
a[998] 0
a[999] 0
a[1000] 1
a[1001] 0
a[1002] 1
a[1003] 0
a[1004] 0
a[1005] 1
a[1006] 0
a[1007] 1
a[1008] 0
a[1009] 0
a[1010] 0
a[1011] 0
a[1012] 1
a[1013] 0
a[1014] 0
a[1015] 1
a[1016] 0
a[1017] 0
a[1018] 1
a[1019] 0
a[1020] 0
a[1021] 1
a[1022] 0
a[1023] 0
a[1024] 0
a[1025] 1
a[1026] 1
a[1027] 1
a[1028] 1
a[1029] 0
a[1030] 0
a[1031] 0
a[1032] 0
a[1033] 0
a[1034] 0
a[1035] 1
a[1036] 1
a[1037] 1
a[1038] 0
a[1039] 0
a[1040] 1
a[1041] 0
a[1042] 0
a[1043] 1
a[1044] 1
a[1045] 0
a[1046] 1
a[1047] 0
a[1048] 0
a[1049] 0
a[1050] 1
a[1051] 0
a[1052] 1
a[1053] 0
a[1054] 0
a[1055] 0
a[1056] 0
a[1057] 1
a[1058] 1
a[1059] 1
a[1060] 1
a[1061] 0
a[1062] 1
a[1063] 1
a[1064] 0
a[1065] 0
a[1066] 0
a[1067] 0
a[1068] 0
a[1069] 0
a[1070] 0
a[1071] 0
a[1072] 0
a[1073] 0
a[1074] 1
a[1075] 0
a[1076] 1
a[1077] 1
a[1078] 1
a[1079] 0
a[1080] 1
a[1081] 0
a[1082] 0
a[1083] 1
a[1084] 0
a[1085] 1
a[1086] 1
a[1087] 0
a[1088] 0
a[1089] 1
a[1090] 1
a[1091] 1
a[1092] 1
a[1093] 1
a[1094] 1
a[1095] 1
a[1096] 0
a[1097] 1
a[1098] 0
a[1099] 1
a[1100] 0
a[1101] 0
a[1102] 0
a[1103] 0
a[1104] 0
a[1105] 1
a[1106] 0
a[1107] 1
a[1108] 0
a[1109] 0
a[1110] 0
a[1111] 0
a[1112] 1
a[1113] 1
a[1114] 1
a[1115] 1
a[1116] 0
a[1117] 0
a[1118] 1
a[1119] 0
a[1120] 1
a[1121] 0
a[1122] 0
a[1123] 0
a[1124] 0
a[1125] 0
a[1126] 0
a[1127] 0
a[1128] 1
a[1129] 0
a[1130] 1
a[1131] 0
a[1132] 0
a[1133] 0
a[1134] 1
a[1135] 1
a[1136] 1
a[1137] 0
a[1138] 0
a[1139] 0
a[1140] 0
a[1141] 0
a[1142] 0
a[1143] 0
a[1144] 0
a[1145] 0
a[1146] 0
a[1147] 1
a[1148] 1
a[1149] 1
a[1150] 0
a[1151] 0
a[1152] 1
a[1153] 0
a[1154] 0
a[1155] 1
a[1156] 1
a[1157] 0
a[1158] 0
a[1159] 1
a[1160] 0
a[1161] 0
a[1162] 1
a[1163] 0
a[1164] 0
a[1165] 0
a[1166] 1
a[1167] 0
a[1168] 1
a[1169] 0
a[1170] 0
a[1171] 0
a[1172] 0
a[1173] 0
a[1174] 1
a[1175] 1
a[1176] 0
a[1177] 0
a[1178] 1
a[1179] 1
a[1180] 0
a[1181] 0
a[1182] 0
a[1183] 1
a[1184] 1
a[1185] 0
a[1186] 0
a[1187] 0
a[1188] 1
a[1189] 0
a[1190] 0
a[1191] 1
a[1192] 0
a[1193] 0
a[1194] 0
a[1195] 0
a[1196] 1
a[1197] 0
a[1198] 0
a[1199] 0
a[1200] 0
a[1201] 0
a[1202] 0
a[1203] 0
a[1204] 1
a[1205] 1
a[1206] 1
a[1207] 0
a[1208] 0
a[1209] 1
a[1210] 0
a[1211] 0
a[1212] 0
a[1213] 0
a[1214] 0
a[1215] 0
a[1216] 1
a[1217] 0
a[1218] 0
a[1219] 0
a[1220] 0
a[1221] 0
a[1222] 0
a[1223] 0
a[1224] 0
a[1225] 0
a[1226] 0
a[1227] 0
a[1228] 1
a[1229] 0
a[1230] 0
a[1231] 0
a[1232] 0
